N = 16; % Number of components
C = 24; % Number of connections

from = [1, 2, 3, 4, 5, 6, 7, 8, 9, 10, 11, 12, 13, 14, 15, 4, 13, 8, 9, 14, 3, 1, 6, 4];
to = [16, 14, 13, 10, 10, 9, 10, 15, 16, 11, 13, 15, 15, 15, 16, 1, 10, 10, 4, 10, 1, 14, 11, 12];